
Gurobi 8.1.1 (linux64) logging started Mon Mar  9 18:19:13 2020


Gurobi 8.1.1 (linux64) logging started Mon Mar  9 18:19:20 2020

Optimize a model with 6171 rows, 2640 columns and 25226 nonzeros
Variable types: 593 continuous, 2047 integer (500 binary)
Coefficient statistics:
  Matrix range     [9e-01, 1e+04]
  Objective range  [7e-03, 4e+02]
  Bounds range     [0e+00, 0e+00]
  RHS range        [1e+00, 2e+04]
Found heuristic solution: objective 96983.047000
Presolve removed 3016 rows and 767 columns
Presolve time: 0.04s
Presolved: 3155 rows, 1873 columns, 14913 nonzeros
Variable types: 125 continuous, 1748 integer (617 binary)
Presolve removed 209 rows and 209 columns
Presolved: 2946 rows, 1664 columns, 13421 nonzeros


Root relaxation: objective 5.442717e+03, 2388 iterations, 0.08 seconds

    Nodes    |    Current Node    |     Objective Bounds      |     Work
 Expl Unexpl |  Obj  Depth IntInf | Incumbent    BestBd   Gap | It/Node Time

     0     0 5442.71683    0  357 96983.0470 5442.71683  94.4%     -    0s
H    0     0                    27161.014112 5442.71683  80.0%     -    0s
H    0     0                    16741.797243 5442.71683  67.5%     -    0s
H    0     0                    11460.338010 5444.51100  52.5%     -    0s
H    0     0                    10715.880353 5444.51100  49.2%     -    0s
H    0     0                    10703.919020 5444.51100  49.1%     -    0s
H    0     0                    10641.264472 5444.51100  48.8%     -    0s
     0     0 6423.72768    0  246 10641.2645 6423.72768  39.6%     -    0s
     0     0 6451.75626    0  250 10641.2645 6451.75626  39.4%     -    0s
     0     0 6451.76881    0  251 10641.2645 6451.76881  39.4%     -    0s
H    0     0                    10442.644092 6451.76881  38.2%     -    0s
H    0     0                    10313.103468 6451.76881  37.4%     -    0s
H    0     0                    10234.153742 6451.76881  37.0%     -    0s
H    0     0                    10210.198893 6451.76881  36.8%     -    0s
H    0     0                    10135.885715 6451.76881  36.3%     -    0s
H    0     0                    9690.5472121 6451.76881  33.4%     -    0s
H    0     0                    9570.4729264 6451.76881  32.6%     -    0s
H    0     0                    9554.5815549 6451.76881  32.5%     -    0s
H    0     0                    9482.0250360 6451.76881  32.0%     -    0s
H    0     0                    9445.1906387 6451.76881  31.7%     -    0s
     0     0 6786.20302    0  335 9445.19064 6786.20302  28.2%     -    0s
     0     0 6805.78706    0  337 9445.19064 6805.78706  27.9%     -    0s
     0     0 6807.07358    0  337 9445.19064 6807.07358  27.9%     -    0s
     0     0 6807.07358    0  337 9445.19064 6807.07358  27.9%     -    0s
H    0     0                    8223.7959753 6807.07358  17.2%     -    1s
H    0     0                    8163.8759753 6807.07358  16.6%     -    1s
     0     0 6894.96795    0  361 8163.87598 6894.96795  15.5%     -    1s
H    0     0                    7971.8782604 6894.96795  13.5%     -    1s
     0     0 6895.98593    0  387 7971.87826 6895.98593  13.5%     -    1s
     0     0 6927.21837    0  394 7971.87826 6927.21837  13.1%     -    1s
     0     0 6933.16977    0  408 7971.87826 6933.16977  13.0%     -    1s
     0     0 6933.17402    0  410 7971.87826 6933.17402  13.0%     -    1s
     0     0 7074.23411    0  285 7971.87826 7074.23411  11.3%     -    2s
     0     0 7079.27992    0  316 7971.87826 7079.27992  11.2%     -    2s
     0     0 7080.34781    0  395 7971.87826 7080.34781  11.2%     -    2s
     0     0 7080.79931    0  408 7971.87826 7080.79931  11.2%     -    2s
     0     0 7102.69580    0  260 7971.87826 7102.69580  10.9%     -    2s
H    0     0                    7971.8582604 7102.69580  10.9%     -    2s
     0     0 7115.30833    0  277 7971.85826 7115.30833  10.7%     -    2s
     0     0 7118.52981    0  279 7971.85826 7118.52981  10.7%     -    2s
     0     0 7120.28326    0  285 7971.85826 7120.28326  10.7%     -    2s
     0     0 7120.28590    0  288 7971.85826 7120.28590  10.7%     -    2s
     0     0 7128.19794    0  217 7971.85826 7128.19794  10.6%     -    3s
     0     0 7129.30879    0  136 7971.85826 7129.30879  10.6%     -    3s
H    0     0                    7858.7468383 7129.30879  9.28%     -    3s
     0     0 7171.42544    0  295 7858.74684 7171.42544  8.75%     -    4s
     0     0 7171.97322    0  351 7858.74684 7171.97322  8.74%     -    4s
H    0     0                    7744.7676359 7171.97322  7.40%     -    4s
     0     0 7175.71143    0  364 7744.76764 7175.71143  7.35%     -    4s
H    0     0                    7738.8096352 7175.71143  7.28%     -    4s
     0     0 7175.71143    0  364 7738.80964 7175.71143  7.28%     -    5s
H    0     0                    7736.0669205 7175.71143  7.24%     -    5s
H    0     0                    7718.7008246 7175.71143  7.03%     -    5s
H    0     0                    7695.0224548 7175.71143  6.75%     -    5s
H    0     0                    7695.0024548 7175.71143  6.75%     -    5s
     0     0 7175.71143    0  256 7695.00245 7175.71143  6.75%     -    5s
     0     0 7175.71143    0  202 7695.00245 7175.71143  6.75%     -    6s
     0     0 7175.71143    0  332 7695.00245 7175.71143  6.75%     -    6s
     0     0 7175.71143    0  227 7695.00245 7175.71143  6.75%     -    6s
     0     0 7175.71143    0  242 7695.00245 7175.71143  6.75%     -    6s
     0     0 7176.57511    0  354 7695.00245 7176.57511  6.74%     -    6s
     0     0 7176.77311    0  357 7695.00245 7176.77311  6.73%     -    6s
H    0     0                    7581.0555370 7176.77311  5.33%     -    6s
     0     0 7177.13932    0  309 7581.05554 7177.13932  5.33%     -    6s
H    0     0                    7537.6795233 7177.13932  4.78%     -    6s
     0     0 7177.16573    0  370 7537.67952 7177.16573  4.78%     -    7s
     0     0 7177.40744    0  332 7537.67952 7177.40744  4.78%     -    7s
     0     0 7177.40744    0  330 7537.67952 7177.40744  4.78%     -    8s
H    0     0                    7533.8440438 7177.40744  4.73%     -    8s
     0     0 7177.40744    0  233 7533.84404 7177.40744  4.73%     -    8s
H    0     0                    7533.8010438 7177.40744  4.73%     -    8s
     0     0 7177.40744    0  150 7533.80104 7177.40744  4.73%     -    8s
     0     0 7177.40744    0  210 7533.80104 7177.40744  4.73%     -    8s
     0     0 7177.40744    0  219 7533.80104 7177.40744  4.73%     -    8s
     0     0 7177.40744    0  172 7533.80104 7177.40744  4.73%     -    8s
     0     0 7177.40744    0  223 7533.80104 7177.40744  4.73%     -    8s
     0     0 7177.40744    0  249 7533.80104 7177.40744  4.73%     -    9s
     0     0 7177.40744    0  330 7533.80104 7177.40744  4.73%     -    9s
     0     0 7177.43139    0  253 7533.80104 7177.43139  4.73%     -    9s
H    0     0                    7533.6060438 7177.43139  4.73%     -    9s
     0     0 7182.68648    0  269 7533.60604 7182.68648  4.66%     -    9s
     0     0 7185.82411    0  224 7533.60604 7185.82411  4.62%     -    9s
     0     0 7186.07153    0  203 7533.60604 7186.07153  4.61%     -   10s
     0     0 7186.07153    0  200 7533.60604 7186.07153  4.61%     -   10s
     0     0 7186.07153    0  180 7533.60604 7186.07153  4.61%     -   10s
     0     0 7186.07153    0  132 7533.60604 7186.07153  4.61%     -   11s
     0     0 7209.28149    0  212 7533.60604 7209.28149  4.31%     -   11s
     0     0 7223.98809    0  216 7533.60604 7223.98809  4.11%     -   11s
     0     0 7224.63009    0  222 7533.60604 7224.63009  4.10%     -   11s
     0     0 7230.08466    0  213 7533.60604 7230.08466  4.03%     -   11s
     0     0 7232.03748    0  223 7533.60604 7232.03748  4.00%     -   11s
     0     0 7232.74668    0  226 7533.60604 7232.74668  3.99%     -   11s
H    0     0                    7533.5630438 7232.74668  3.99%     -   11s
     0     0 7245.14974    0  236 7533.56304 7245.14974  3.83%     -   11s
     0     0 7245.18121    0  244 7533.56304 7245.18121  3.83%     -   11s
     0     0 7250.01160    0  262 7533.56304 7250.01160  3.76%     -   11s
     0     0 7252.04457    0  154 7533.56304 7252.04457  3.74%     -   12s
     0     0 7252.04457    0  150 7533.56304 7252.04457  3.74%     -   12s
     0     0 7252.04457    0  153 7533.56304 7252.04457  3.74%     -   12s
H    0     0                    7533.5630229 7252.04457  3.74%     -   12s
     0     0 7252.04457    0  157 7533.56302 7252.04457  3.74%     -   12s
     0     0 7252.04457    0  132 7533.56302 7252.04457  3.74%     -   12s
     0     0 7252.04457    0  211 7533.56302 7252.04457  3.74%     -   12s
     0     0 7252.04457    0  148 7533.56302 7252.04457  3.74%     -   12s
     0     0 7252.44365    0  151 7533.56302 7252.44365  3.73%     -   12s
     0     0 7252.52872    0  152 7533.56302 7252.52872  3.73%     -   12s
H    0     0                    7533.5630151 7252.52872  3.73%     -   12s
     0     0 7254.83807    0  150 7533.56302 7254.83807  3.70%     -   12s
     0     0 7255.36901    0  156 7533.56302 7255.36901  3.69%     -   12s
     0     0 7255.86437    0  170 7533.56302 7255.86437  3.69%     -   12s
     0     0 7255.86437    0  164 7533.56302 7255.86437  3.69%     -   13s
     0     2 7255.86437    0  160 7533.56302 7255.86437  3.69%     -   13s

Cutting planes:
  Learned: 14
  Gomory: 15
  Cover: 11
  Implied bound: 8
  Projected implied bound: 14
  Clique: 10
  MIR: 109
  StrongCG: 30
  Flow cover: 77
  Zero half: 9
  Mod-K: 2

Explored 58 nodes (27695 simplex iterations) in 13.26 seconds
Thread count was 4 (of 4 available processors)

Solution count 10: 7533.56 7533.56 7533.56 ... 7695.02

Optimal solution found (tolerance 1.00e-02)
Best objective 7.533563015139e+03, best bound 7.463679359984e+03, gap 0.9276%
